
GUB cover cuts applied:  4
Clique cuts applied:  5
Cover cuts applied:  26
Implied bound cuts applied:  198
Mixed integer rounding cuts applied:  21
Zero-half cuts applied:  6
Multi commodity flow cuts applied:  5
Lift and project cuts applied:  1
Gomory fractional cuts applied:  1

Root node processing (before b&c):
  Real time             =    0.09 sec. (42.75 ticks)
Parallel b&c, 4 threads:
  Real time             =    0.10 sec. (78.43 ticks)
  Sync time (average)   =    0.01 sec.
  Wait time (average)   =    0.00 sec.
                          ------------
Total (root+branch&cut) =    0.19 sec. (121.18 ticks)
Version identifier: 12.10.0.0 | 2019-11-26 | 843d4de
CPXPARAM_MIP_Interval                            10
CPXPARAM_MIP_Tolerances_AbsMIPGap                0.98999999999999999
Tried aggregator 2 times.
MIP Presolve eliminated 3175 rows and 1518 columns.
MIP Presolve added 4 rows and 0 columns.
MIP Presolve modified 130 coefficients.
Aggregator did 11 substitutions.
Reduced MIP has 1530 rows, 190 columns, and 3344 nonzeros.
Reduced MIP has 151 binaries, 39 generals, 0 SOSs, and 0 indicators.
Presolve time = 0.01 sec. (5.43 ticks)
Found incumbent of value 4.000000 after 0.01 sec. (8.89 ticks)
Probing fixed 0 vars, tightened 6 bounds.
Probing time = 0.00 sec. (0.64 ticks)
Cover probing fixed 0 vars, tightened 28 bounds.
Tried aggregator 1 time.
Detecting symmetries...
MIP Presolve eliminated 1178 rows and 0 columns.
MIP Presolve modified 21 coefficients.
Reduced MIP has 352 rows, 190 columns, and 988 nonzeros.
Reduced MIP has 151 binaries, 39 generals, 0 SOSs, and 0 indicators.
Presolve time = 0.00 sec. (1.29 ticks)
Probing fixed 0 vars, tightened 7 bounds.
Probing time = 0.00 sec. (0.20 ticks)
Cover probing fixed 0 vars, tightened 24 bounds.
Clique table members: 242.
MIP emphasis: balance optimality and feasibility.
MIP search method: dynamic search.
Parallel mode: deterministic, using up to 4 threads.
Root relaxation solution time = 0.00 sec. (1.42 ticks)

        Nodes                                         Cuts/
   Node  Left     Objective  IInf  Best Integer    Best Bound    ItCnt     Gap

*     0+    0                            4.0000       40.0000           900.00%
*     0+    0                           22.0000       40.0000            81.82%
      0     0       25.6667    68       22.0000       25.6667      175   16.67%
      0     0       25.5778    68       22.0000     Cuts: 120      299   16.26%
      0     0       25.4675    68       22.0000     Cuts: 103      372   15.76%
      0     0       25.4494    68       22.0000      Cuts: 49      434   15.68%
      0     0       25.4310    68       22.0000      Cuts: 42      488   15.60%
      0     0       25.4013    68       22.0000      Cuts: 57      554   15.46%
Detecting symmetries...
      0     0       25.3945    68       22.0000      Cuts: 36      588   15.43%
      0     0       25.3907    68       22.0000      Cuts: 37      621   15.41%
      0     0       25.3861    68       22.0000      Cuts: 46      662   15.39%
      0     0       25.3721    68       22.0000      Cuts: 35      702   15.33%
      0     0       25.3603    68       22.0000      Cuts: 46      761   15.27%
      0     0       25.3104    68       22.0000      Cuts: 30      839   15.05%
*     0+    0                           23.0000       25.3104            10.05%
      0     0       25.2974    68       23.0000      Cuts: 51      944    9.99%
      0     0       25.2858    68       23.0000      Cuts: 40      998    9.94%
      0     0       25.2754    68       23.0000      Cuts: 49     1041    9.89%
      0     0       25.2691    68       23.0000      Cuts: 38     1069    9.87%
      0     0       25.2650    68       23.0000      Cuts: 28     1103    9.85%
      0     0       25.2620    68       23.0000      Cuts: 35     1138    9.83%
Detecting symmetries...
      0     2       25.2620   161       23.0000       25.0370     1138    8.86%
Elapsed time = 0.28 sec. (169.09 ticks, tree = 0.02 MB, solutions = 3)
     10     5       25.1663   132       23.0000       25.0370     1287    8.86%
     20    16       24.9206    90       23.0000       25.0370     2015    8.86%
     30    23       24.8056    69       23.0000       25.0370     2462    8.86%
     40    28       24.5111    78       23.0000       25.0370     2986    8.86%
     50    41       24.5000    35       23.0000       25.0370     3828    8.86%
     60    43       24.0703    83       23.0000       25.0370     4000    8.86%
     70    41       25.1104   100       23.0000       25.0370     4146    8.86%
     80    50       24.8833    95       23.0000       25.0370     4877    8.86%
     90    60       24.2222    60       23.0000       25.0370     5850    8.86%
    100    56       24.8996    92       23.0000       25.0370     5756    8.86%
Elapsed time = 0.31 sec. (199.13 ticks, tree = 0.03 MB, solutions = 3)
    110    63        cutoff             23.0000       25.0370     6055    8.86%
    120    63       25.0848   126       23.0000       25.0370     6142    8.86%
    130    71       24.3475    92       23.0000       25.0370     7007    8.86%
    140    81        cutoff             23.0000       25.0370     8050    8.86%
    150    88       24.4522   110       23.0000       25.0370     8840    8.86%
    160    96       25.0139    88       23.0000       25.0370     9174    8.86%
    170    99       24.7450    93       23.0000       25.0370     9257    8.86%
    180   104       24.7308    82       23.0000       25.0370     9709    8.86%
    190   108        cutoff             23.0000       25.0370    10518    8.86%
    200   110       24.5816    46       23.0000       25.0370    10261    8.86%
Elapsed time = 0.34 sec. (225.95 ticks, tree = 0.04 MB, solutions = 3)
    210   120       24.2778    83       23.0000       25.0370    11661    8.86%
    220   125       24.9435    95       23.0000       25.0370    11815    8.86%
    230   127       24.6667    67       23.0000       25.0370    11925    8.86%
    240   117        cutoff             23.0000       25.0370    11392    8.86%
    250   128       24.3333    52       23.0000       25.0370    12966    8.86%
    260   125       24.7105   101       23.0000       25.0370    12633    8.86%
    270   128       24.5597    86       23.0000       25.0370    12737    8.86%
    280   130       24.0000    65       23.0000       25.0349    12835    8.85%
    290   129        cutoff             23.0000       25.0349    13365    8.85%
    300   139       24.3333    57       23.0000       25.0349    14297    8.85%
Elapsed time = 0.36 sec. (246.56 ticks, tree = 0.04 MB, solutions = 3)
    310   147       24.6277   121       23.0000       25.0156    14808    8.76%
    320   146       24.0000    52       23.0000       25.0139    15375    8.76%
    330   159       24.4192    76       23.0000       25.0139    15988    8.76%
    340   161       24.0000    48       23.0000       25.0139    16035    8.76%
    350   163       24.4756   104       23.0000       25.0139    16275    8.76%
    360   153       24.2500    60       23.0000       24.9893    15695    8.65%
    370   164        cutoff             23.0000       24.9893    16422    8.65%
    380   163       24.1667    58       23.0000       24.9795    16798    8.61%
    390   174        cutoff             23.0000       24.9471    17922    8.47%
    400   167       24.4792    71       23.0000       24.9392    17007    8.43%
Elapsed time = 0.38 sec. (268.65 ticks, tree = 0.05 MB, solutions = 3)
    410   192       24.1667    57       23.0000       24.9392    18890    8.43%
    420   192        cutoff             23.0000       24.9392    18931    8.43%
    430   192       24.5845   109       23.0000       24.9388    19038    8.43%
    440   194        cutoff             23.0000       24.9388    19178    8.43%
    450   178       24.0926    82       23.0000       24.9388    18524    8.43%
    460   199       24.0054    39       23.0000       24.9329    19737    8.40%
    470   199        cutoff             23.0000       24.9044    19890    8.28%
    480   204       24.2500    77       23.0000       24.9044    21279    8.28%
    490   206       24.0833    53       23.0000       24.9044    21338    8.28%
    500   203       24.4167    99       23.0000       24.9044    20188    8.28%
Elapsed time = 0.41 sec. (295.54 ticks, tree = 0.06 MB, solutions = 3)
    510   203       24.0241    78       23.0000       24.8953    21027    8.24%
    520   202        cutoff             23.0000       24.8953    21134    8.24%
    530   209       24.1111    52       23.0000       24.8953    22428    8.24%
    540   209       24.2222    71       23.0000       24.8953    22570    8.24%
    550   207        cutoff             23.0000       24.8953    22650    8.24%
    560   219       24.0000    66       23.0000       24.8313    25385    7.96%
    570   220       24.2917    82       23.0000       24.8313    24637    7.96%
    580   215        cutoff             23.0000       24.8313    23833    7.96%
    590   218        cutoff             23.0000       24.8313    25722    7.96%
    600   217        cutoff             23.0000       24.8313    25053    7.96%
Elapsed time = 0.44 sec. (323.36 ticks, tree = 0.06 MB, solutions = 3)
    610   216       24.0833    61       23.0000       24.8210    24220    7.92%
    620   219        cutoff             23.0000       24.8210    26510    7.92%
    630   221       24.2778    70       23.0000       24.8210    25312    7.92%
    640   217        cutoff             23.0000       24.8056    26717    7.85%
    650   219        cutoff             23.0000       24.7917    29040    7.79%
    660   214        cutoff             23.0000       24.7917    27484    7.79%
    670   215       24.6556    56       23.0000       24.7917    27574    7.79%
    680   221        cutoff             23.0000       24.7813    28540    7.74%
    690   219        cutoff             23.0000       24.7813    29320    7.74%
    700   218        cutoff             23.0000       24.7813    29398    7.74%
Elapsed time = 0.46 sec. (349.50 ticks, tree = 0.06 MB, solutions = 3)
    710   220       24.1667    47       23.0000       24.7813    30215    7.74%
    720   219       24.1414    86       23.0000       24.7813    28873    7.74%
    730   218        cutoff             23.0000       24.7665    29671    7.68%
    740   216       24.0417    95       23.0000       24.7509    29800    7.61%
    750   219        cutoff             23.0000       24.7315    31253    7.53%
    760   217        cutoff             23.0000       24.7315    30646    7.53%
    770   225       24.1311   113       23.0000       24.7315    33016    7.53%
    780   220       24.1667    21       23.0000       24.7044    31527    7.41%
    790   222        cutoff             23.0000       24.7044    32304    7.41%
    800   223        cutoff             23.0000       24.6985    33252    7.38%
Elapsed time = 0.49 sec. (374.56 ticks, tree = 0.07 MB, solutions = 3)
    810   222       24.0660    90       23.0000       24.6985    33910    7.38%
    820   212        cutoff             23.0000       24.6985    34607    7.38%
    830   219        cutoff             23.0000       24.6985    34053    7.38%
    840   211       24.0500    89       23.0000       24.6985    34772    7.38%
    850   224        cutoff             23.0000       24.6985    33611    7.38%
    860   206       24.0000    61       23.0000       24.6404    36661    7.13%
    870   207        cutoff             23.0000       24.6404    35854    7.13%
    880   194       24.0686    75       23.0000       24.6404    37540    7.13%
    890   203        cutoff             23.0000       24.6404    35269    7.13%
    900   206       24.3889    50       23.0000       24.6404    36170    7.13%
Elapsed time = 0.51 sec. (397.00 ticks, tree = 0.06 MB, solutions = 3)
    910   190        cutoff             23.0000       24.5833    37757    6.88%
    920   198       24.0000    23       23.0000       24.5833    37212    6.88%
    930   183       24.1667    80       23.0000       24.5833    38315    6.88%
    940   198       24.0000    49       23.0000       24.5714    37402    6.83%
    950   180        cutoff             23.0000       24.5714    38468    6.83%
    960   160        cutoff             23.0000       24.5243    39783    6.63%
    970   157        cutoff             23.0000       24.5000    39857    6.52%
    980   156       24.0000    66       23.0000       24.5000    39994    6.52%
    990   135        cutoff             23.0000       24.4500    41087    6.30%
   1000   153        cutoff             23.0000       24.4500    40123    6.30%
Elapsed time = 0.54 sec. (419.31 ticks, tree = 0.04 MB, solutions = 3)
   1010   131        cutoff             23.0000       24.4062    41241    6.11%
   1020   138        cutoff             23.0000       24.4062    40923    6.11%
   1030   111        cutoff             23.0000       24.4062    41941    6.11%
   1040   126       24.0833    59       23.0000       24.4062    41675    6.11%
   1050    90    infeasible             23.0000       24.3571    42688    5.90%
   1060   102        cutoff             23.0000       24.3571    42189    5.90%
   1070    85        cutoff             23.0000       24.3571    42743    5.90%
   1080    63        cutoff             23.0000       24.3158    43291    5.72%
   1090    52    infeasible             23.0000       24.2381    43492    5.38%
   1100    43    infeasible             23.0000       24.2167    43565    5.29%
Elapsed time = 0.56 sec. (433.42 ticks, tree = 0.03 MB, solutions = 3)
   1110    34        cutoff             23.0000       24.2167    43650    5.29%
   1120    36        cutoff             23.0000       24.2167    43624    5.29%
   1130    60        cutoff             23.0000       24.1944    43502    5.19%
   1140     5        cutoff             23.0000       24.0833    44212    4.71%
the number of Nodes = 1141
